Version identifier: 20.1.0.0 | 2020-11-10 | 9bedb6d68
CPXPARAM_Threads                                 1
CPXPARAM_TimeLimit                               7200
CPXPARAM_MIP_Tolerances_MIPGap                   0
Generic callback                                 0x60
1 of 1 MIP starts provided solutions.
MIP start 'm1' defined initial solution with objective 2579.7889.
Tried aggregator 1 time.
Reduced MIP has 640801 rows, 640801 columns, and 1920800 nonzeros.
Reduced MIP has 800 binaries, 0 generals, 0 SOSs, and 0 indicators.
Presolve time = 0.64 sec. (607.18 ticks)
Probing time = 0.08 sec. (80.04 ticks)
Tried aggregator 1 time.
Reduced MIP has 640801 rows, 640801 columns, and 1920800 nonzeros.
Reduced MIP has 800 binaries, 0 generals, 0 SOSs, and 0 indicators.
Presolve time = 0.66 sec. (596.80 ticks)
Probing time = 0.08 sec. (80.04 ticks)
MIP emphasis: balance optimality and feasibility.
MIP search method: dynamic search.
Parallel mode: none, using 1 thread.
Root relaxation solution time = 0.22 sec. (246.74 ticks)

        Nodes                                         Cuts/
   Node  Left     Objective  IInf  Best Integer    Best Bound    ItCnt     Gap

*     0+    0                         2579.7889     4368.0000            69.32%
      0     0     2732.7679    10     2579.7889     4368.0000        0   69.32%
      0     2     2732.7679    10     2579.7889     2732.7677        0    5.93%
Elapsed time = 339.57 sec. (366737.53 ticks, tree = 0.01 MB, solutions = 1)
      1     3     2589.6263    19     2579.7889     2732.7652      140    5.93%
*     2     2      integral     0     2581.2783     2589.6262    18130    0.32%
      3     3     2589.1575    20     2581.2783     2589.6258    22403    0.32%
      4     4     2588.9704    20     2581.2783     2589.1572    24937    0.31%
      5     5     2588.8259    18     2581.2783     2589.1572    27881    0.31%
      6     6     2588.6818    19     2581.2783     2589.1572    47159    0.31%
      7     7     2586.7999    16     2581.2783     2589.1572   115479    0.31%
      8     8     2586.1577    15     2581.2783     2589.1572   143281    0.31%
      9     9     2585.8356    16     2581.2783     2589.1572   152852    0.31%
*    10+    8                         2584.9040     2589.1572             0.16%
     10    10     2585.9172    10     2584.9040     2589.1572   154425    0.16%
Elapsed time = 1611.12 sec. (1162600.64 ticks, tree = 11.62 MB, solutions = 3)
     11    11     2585.7821    10     2584.9040     2589.1572   154783    0.16%
     12    10        cutoff           2584.9040     2589.1572   155836    0.16%
     13    11     2585.6870    12     2584.9040     2589.1572   156375    0.16%
     14    10        cutoff           2584.9040     2589.1572   157374    0.16%
     15    11     2585.6160    12     2584.9040     2589.1572   157739    0.16%
     16    10        cutoff           2584.9040     2589.1572   158590    0.16%
     17    11     2585.4881    11     2584.9040     2589.1572   159473    0.16%
     18    12     2585.2548    11     2584.9040     2589.1572   160729    0.16%
     19    11        cutoff           2584.9040     2589.1572   160981    0.16%
     20    12     2585.2146    10     2584.9040     2589.1572   161365    0.16%
Elapsed time = 1830.78 sec. (1274916.20 ticks, tree = 12.08 MB, solutions = 3)
     21    13     2585.1450    10     2584.9040     2589.1572   161919    0.16%
     22    12        cutoff           2584.9040     2589.1572   162089    0.16%
     23    13     2585.1317    10     2584.9040     2589.1572   162213    0.16%
     24    12        cutoff           2584.9040     2589.1572   162328    0.16%
     25    13     2585.1248    10     2584.9040     2589.1572   162410    0.16%
     26    12        cutoff           2584.9040     2589.1572   162598    0.16%
     27    13     2584.9727    10     2584.9040     2589.1572   163830    0.16%
     28    12        cutoff           2584.9040     2589.1572   164048    0.16%
     29    11        cutoff           2584.9040     2589.1572   164831    0.16%
     31    11     2587.9563    14     2584.9040     2588.9702   169764    0.16%
Elapsed time = 2072.83 sec. (1391402.92 ticks, tree = 11.85 MB, solutions = 3)
     32    12     2587.3612    13     2584.9040     2588.9702   171950    0.16%
     33    13     2587.1578    12     2584.9040     2588.9702   172339    0.16%
     34    14     2586.9133    12     2584.9040     2588.9702   173014    0.16%
     35    15     2586.2014     2     2584.9040     2588.9702   175840    0.16%
     36    16     2586.0097     2     2584.9040     2588.9702   177085    0.16%
     37    15        cutoff           2584.9040     2588.9702   178239    0.16%
     38    16     2585.9717     6     2584.9040     2588.9702   178552    0.16%
     39    15        cutoff           2584.9040     2588.9702   179323    0.16%
*    40+   13                         2585.6039     2588.9702             0.13%
     40    15     2585.9105     2     2585.6039     2588.9702   179642    0.13%
     41    14        cutoff           2585.6039     2588.9702   181079    0.13%
Elapsed time = 2398.55 sec. (1573809.57 ticks, tree = 12.77 MB, solutions = 4)
     42    13        cutoff           2585.6039     2588.9702   181286    0.13%
     43    14     2588.9364    18     2585.6039     2588.9685   182001    0.13%
*    44     2      integral     0     2588.8661     2588.9685   182780    0.00%
*    45     1      integral     0     2588.9173     2588.9685   183500    0.00%
     46     0        cutoff           2588.9173     2588.9173   183888    0.00%

User cuts applied:  10

Root node processing (before b&c):
  Real time             =  339.58 sec. (366756.05 ticks)
Sequential b&c:
  Real time             = 2127.55 sec. (1240703.07 ticks)
                          ------------
Total (root+branch&cut) = 2467.14 sec. (1607459.12 ticks)
@Parameters: 
is_S_cut                                true
is_add_all_yinF                         true
is_start_value                          true
is_usercut                              true
is_visualization                        false
uc_only_rootnode                        false

data                                    Qi
fn                                      data/Qi/instance_800_800.csv
mode                                    ZLP
solver                                  cplex

p                                       10
r                                       5

EPS                                     1.0e-06
EPS_vio                                 1.0e-04
beta                                    0.10
gap                                     0.00
nodelimit                               Inf
timelimit                               7200.00


@PrintInfos
ItCnt: 183888
Current gap: 0.00 %
Termination Status: OPTIMAL
Primal Status: FEASIBLE_POINT
Solve Time: 2467.14 sec
Objective Value: 2588.917254
Number of Nodes:     47

CutInfo: [phase] num / time (sec) 
ZLP             [phase1]     0 / 0.00 [rLC]     2 / 12.01 [rUC]     2 / 7.19 [sLC]     3 / 34.59 [sUC]     6 / 306.86 
OldSubmodular   [phase1]     0 / 0.00 [rLC]     0 / 0.00 [rUC]     0 / 0.00 [sLC]     0 / 0.00 [sUC]     0 / 0.00 
NewSubmodular   [phase1]     0 / 0.00 [rLC]     0 / 0.00 [rUC]     0 / 0.00 [sLC]     0 / 0.00 [sUC]     0 / 0.00 
PMP             [phase1]     0 / 0.00 [rLC]     3 / 9.20 [rUC]     2 / 5.50 [sLC]     8 / 30.90 [sUC]    60 / 270.12 
Separation Round: [phase1] 0  [rLC] 3  [rUC] 2  [sLC] 8  [sUC] 60
Root Best Bound 2589.626211
Root Best Integer: 2581.278307
Best Bound: 2588.917254
Best Integer: 2588.917254

